!ISTART = 1
!PREC=high
!ENMAX  = 220
!LREAL  = .FALSE.
!IALGO = 48
ISMEAR = 0
ENCUT = 1000
SIGMA  = 0.01
POTIM  = 0.05
NSW = 99
IBRION = 1