Automatic generation
0
Monkhorst-pack
25 25 1
0 0 0